c FILE /home/rafael/Documents/HappySet/MIHS/inputs/happygen/output/graph_d_regular_k2_p0.2_v50_20241127_082541.txt
c SOURCE This is a d-regular graph formed for the happy graph colouring problem.
c DESCRIPTION It was generated using the problem generator of Rhyd Lewis
c
c GRAPH STATS
c Seed                             = -815461912
c Number of Nodes                  = 50
c Number of colours k              = 2
c Number of pre-assignments        = 10
c Degree of all vertices           = 6
c Density                          = 0.122449
c 
c The degrees of nodes 1 to 50, respectively, are as follows 
c [6, 6, 6, 6, 6, 6, 6, 6, 6, 6, 6, 6, 6, 6, 6, 6, 6, 6, 6, 6, 6, 6, 6, 6, 6, 6, 
c  6, 6, 6, 6, 6, 6, 6, 6, 6, 6, 6, 6, 6, 6, 6, 6, 6, 6, 6, 6, 6, 6, 6, 6] 
c  
p edge 50 150 2
e 1 2
e 1 3
e 1 33
e 1 38
e 1 49
e 1 50
e 2 5
e 2 20
e 2 25
e 2 32
e 2 36
e 3 11
e 3 15
e 3 37
e 3 39
e 3 47
e 4 6
e 4 17
e 4 34
e 4 42
e 4 48
e 4 50
e 5 6
e 5 15
e 5 19
e 5 26
e 5 46
e 6 13
e 6 18
e 6 37
e 6 47
e 7 13
e 7 15
e 7 33
e 7 35
e 7 46
e 7 48
e 8 11
e 8 12
e 8 15
e 8 20
e 8 31
e 8 41
e 9 24
e 9 38
e 9 40
e 9 42
e 9 46
e 9 47
e 10 14
e 10 22
e 10 26
e 10 29
e 10 41
e 10 43
e 11 22
e 11 27
e 11 37
e 11 50
e 12 23
e 12 32
e 12 40
e 12 44
e 12 47
e 13 18
e 13 20
e 13 35
e 13 49
e 14 16
e 14 17
e 14 18
e 14 43
e 14 46
e 15 24
e 15 34
e 16 23
e 16 29
e 16 34
e 16 44
e 16 48
e 17 20
e 17 25
e 17 30
e 17 36
e 18 20
e 18 29
e 18 34
e 19 21
e 19 23
e 19 29
e 19 40
e 19 47
e 20 41
e 21 28
e 21 35
e 21 38
e 21 42
e 21 49
e 22 24
e 22 30
e 22 31
e 22 40
e 23 25
e 23 28
e 23 30
e 24 25
e 24 27
e 24 44
e 25 27
e 25 33
e 26 33
e 26 37
e 26 42
e 26 45
e 27 29
e 27 33
e 27 46
e 28 34
e 28 37
e 28 42
e 28 46
e 29 50
e 30 32
e 30 33
e 30 36
e 31 32
e 31 44
e 31 47
e 31 49
e 32 40
e 32 45
e 34 38
e 35 38
e 35 43
e 35 48
e 36 37
e 36 39
e 36 45
e 38 41
e 39 40
e 39 42
e 39 43
e 39 49
e 41 43
e 41 45
e 43 48
e 44 45
e 44 48
e 45 50
e 49 50
n 1 2
n 4 1
n 15 2
n 16 1
n 18 1
n 36 1
n 41 1
n 42 1
n 44 1
n 48 1
